p wcnf 9 31 181
181 1 4 0
181 1 5 0
181 1 6 0
181 1 9 0
181 2 6 0
181 2 7 0
181 2 9 0
181 3 4 0
181 3 5 0
181 3 6 0
181 3 7 0
181 3 8 0
181 3 9 0
181 4 5 0
181 5 6 0
181 5 7 0
181 6 7 0
181 6 8 0
181 6 9 0
181 7 8 0
181 7 9 0
181 8 9 0
18 -1 0
19 -2 0
16 -3 0
19 -4 0
17 -5 0
15 -6 0
16 -7 0
18 -8 0
16 -9 0
